1 - 0
2 - 0
3 - 0
4 - 0
5 - 0
6 - 0
7 - 0
8 - 0
9 - 0
10 - 0
11 - 0
12 - 0
13 - 0
14 - 0
15 - 0
16 - 0
17 - 0
18 - 0
19 - 0
20 - 0
21 - 0
22 - 0
23 - 10
24 - 158
25 - 275
26 - 280
27 - 306
28 - 380
29 - 516
30 - 680
31 - 922
32 - 1241
33 - 1698
34 - 2172
35 - 2969
36 - 3881
37 - 4684
38 - 5828
39 - 6825
40 - 7576
41 - 8393
42 - 8767
43 - 8725
44 - 8438
45 - 7798
46 - 6617
47 - 5288
48 - 3714
49 - 1859
50 - 0

0.1 - 8556
0.2 - 8898
0.3 - 8764
0.4 - 13424
0.5 - 11945
0.6 - 12652
0.7 - 10070
0.8 - 10835
0.9 - 8515
1 - 6341
